SCIP version 5.0.0 [precision: 8 byte] [memory: block] [mode: optimized] [LP solver: NONE] [GitHash: 3bbd232]
Copyright (C) 2002-2017 Konrad-Zuse-Zentrum fuer Informationstechnik Berlin (ZIB)

External codes: 
  Readline EditLine w  GNU library for command line editing (gnu.org/s/readline)
  CppAD 20160000.1     Algorithmic Differentiation of C++ algorithms developed by B. Bell (www.coin-or.org/CppAD)
  ZLIB 1.2.5           General purpose compression library by J. Gailly and M. Adler (zlib.net)
  GMP 6.1.2            GNU Multiple Precision Arithmetic Library developed by T. Granlund (gmplib.org)

user parameter file <scip.set> not found - using default parameters

read problem <../../Split_data/output/seismic-bumps/2/3_sample_seismic-bumps.logreg>
============

File name	:	../../Split_data/output/seismic-bumps/2/3_sample_seismic-bumps.logreg
Problem name 	:	3_sample_seismic-bumps
Number of data	:	2067
Number of var	:	21
The given data has linear dependence
4 sets of column vector are linearly dependent:
{ 2 3}, { 4 5 6}, { 7 8}, { 13 14 15}, 

[dim=1] time: 0.037882
[dim=2] time: 0.075077
[dim=3] time: 0.10727
[dim=4] time: 0.1383
[dim=5] time: 0.166271
[dim=6] time: 0.198189
[dim=7] time: 0.22201
[dim=8] Time of forward = 0.246674sec.
AIC: 836.789
k: 7

[dim=17] time: 0.078711
[dim=16] time: 0.112144
[dim=15] time: 0.134051
[dim=14] time: 0.157909
[dim=13] time: 0.175012
[dim=12] time: 0.190328
[dim=11] time: 0.214448
[dim=10] time: 0.238839
[dim=9] Time of backward = 0.255593sec.
AIC: 838.186
k: 10
